32	5
13	18	17	18	16
0	0	0	0	0	0	1	2
10	0	0	0	0	7	1	3
1	0	0	0	0	0	1	4
9	0	0	0	8	0	1	5
9	0	0	1	0	0	1	6
9	0	0	5	9	0	2	7	9
4	0	0	17	0	0	1	8
4	0	0	0	0	0	2	10	13
2	0	0	0	0	0	2	11	13
10	9	0	0	0	0	2	11	15
4	0	14	0	15	0	1	12
2	13	18	0	0	0	2	14	17
1	4	0	6	0	0	2	15	17
9	0	0	0	0	0	1	16
4	0	5	0	0	0	1	16
9	0	2	0	0	0	1	18
8	0	0	15	7	0	1	18
7	0	0	0	0	0	1	19
2	5	0	0	0	11	1	20
4	0	7	0	0	0	1	21
1	0	0	0	0	0	1	22
1	0	0	0	10	0	2	23	26
3	6	0	7	0	0	1	24
10	0	8	0	0	8	2	25	27
2	0	0	0	5	0	1	28
7	2	0	0	0	10	1	27
3	0	0	0	0	5	1	29
5	0	0	0	0	0	1	29
7	0	0	0	0	0	1	30
10	0	0	0	0	0	1	31
2	0	0	0	0	7	1	32
0	0	0	0	0	0	0
